p cnf 7230 17
4706 5178 5486 0
-4706 -5486 0
-5186 -5196 -5491 0
4714 5182 5489 0
4712 5184 5487 0
5186 -5492 0
-4714 -5490 0
-4712 -5488 0
5491 5492 0
-5489 5490 0
-5487 5488 0
5196 -5492 0
-5182 -5490 0
-5184 -5488 0
4724 -5494 0
-5485 5486 0
5485 -5486 0
